benchmark_str_length/p2_10_11-3.dzn
Alphabet = {A,C,G,T};
ns = 10;
nc = 9;
sl = 9;
neighbours = [| I(C),I(A),Null,Null,Null,Null,Null,Null,Null | I(G),I(G),Null,Null,Null,Null,Null,Null,Null | I(A),I(G),I(C),I(G),I(A),I(G),Null,Null,Null | I(C),I(G),I(C),I(T),I(G),I(T),I(T),I(A),Null | I(C),I(C),I(T),I(A),I(G),I(A),I(C),Null,Null | I(G),I(T),I(C),I(C),I(C),I(C),I(T),I(G),I(C) | I(T),I(T),I(T),I(G),Null,Null,Null,Null,Null | I(A),I(T),I(T),I(G),I(T),I(T),I(A),Null,Null | I(G),Null,Null,Null,Null,Null,Null,Null,Null | I(T),I(G),Null,Null,Null,Null,Null,Null,Null |];
