benchmark_str_length/p2_10_11-3.txt
{
	"num_strings": 10,
	"alphabet": "ACGT",
	"strings": [
		"CA",
		"GG",
		"AGCGAG",
		"CGCTGTTA",
		"CCTAGAC",
		"GTCCCCTGC",
		"TTTG",
		"ATTGTTA",
		"G",
		"TG"
	],
	"str_length":[2,2,6,8,7,9,4,7,1,2]
}